============================[ Problem Statistics ]=============================|                                                                             ||  Number of variables:          4242                                         ||  Number of clauses:            9702                                         ||  Parse time:                   0.10 s                                       ||                                                                             |============================[ Search Statistics ]==============================| Conflicts |          ORIGINAL         |          LEARNT          | Progress ||           |    Vars  Clauses Literals |    Limit  Clauses Lit/Cl |          |==============================================================================================================================================================restarts              : 1conflicts             : 66             (402 /sec)decisions             : 151            (0.00 % random) (921 /sec)propagations          : 8167           (49799 /sec)conflict literals     : 3171           (95.93 % deleted)CPU time              : 0.164 sSATISFIABLE